49 49 47 46 49 49 46 43 48 45 49 46 47 43 46 45 47 48 46 43 
40 39 43 45 39 42 42 44 40 43 42 41 41 43 45 43 43 40 43 43 
39 42 44 43 42 42 41 43 40 44 39 41 41 45 42 43 41 40 40 43 
42 41 44 46 45 43 45 43 42 45 44 44 44 45 46 45 44 42 43 45 
44 42 46 44 43 41 41 45 41 45 43 46 46 43 44 45 43 44 42 45 
39 39 41 42 39 39 40 45 40 43 39 41 41 43 44 43 42 40 41 43 
46 46 44 45 48 46 48 45 48 45 48 46 47 44 46 45 47 46 47 44 
41 41 41 43 44 43 43 44 41 43 44 44 41 45 42 44 43 43 42 43 
46 42 46 42 46 45 46 45 46 45 43 46 43 43 45 43 42 45 45 44 
46 48 47 43 46 46 45 44 47 45 47 46 47 45 46 45 44 47 46 44 
44 47 46 43 44 44 46 45 46 44 44 43 43 43 43 45 46 46 46 43 
40 39 41 44 43 43 43 43 40 44 40 41 44 43 45 43 44 41 40 43 
49 46 44 44 46 49 45 43 46 43 47 44 47 45 46 45 44 45 45 45 
45 41 42 44 42 42 45 44 45 45 41 42 46 45 43 44 43 44 46 45 
46 48 45 46 44 45 48 45 44 45 46 46 47 45 44 44 43 45 47 44 
42 43 44 42 42 42 41 43 45 43 42 45 45 45 43 43 45 42 42 45 
45 43 42 42 42 43 42 44 41 45 44 44 41 44 45 43 41 45 43 43 
47 44 46 43 46 47 44 45 46 43 44 43 46 43 45 43 45 44 43 43 
39 41 44 44 39 40 42 43 40 43 39 44 44 44 42 43 41 42 42 45 
43 40 43 44 43 41 43 43 43 45 41 41 41 45 45 43 41 43 42 43 